c 
c G(n,p) graph
c graph gen seed     : 559103
c number of vertices : 60
c max number of edges: 1770
c edge probability   : 0.200000
c data structure     : sparse
c
c           Graph Stats
c number of vertices  : 60
c nonisolated vertices: 60
c number of edges     : 327
c edge density        : 0.184746
c max degree          : 17
c avg degree          : 10.90
c min degree          : 4
p col 60 327
e 1 59
e 1 58
e 1 53
e 1 52
e 1 49
e 1 48
e 1 46
e 1 43
e 1 27
e 1 17
e 1 13
e 1 10
e 1 8
e 1 6
e 2 59
e 2 54
e 2 48
e 2 42
e 2 39
e 2 36
e 2 31
e 2 27
e 2 18
e 2 13
e 2 10
e 2 6
e 3 57
e 3 56
e 3 42
e 3 39
e 3 25
e 3 24
e 3 19
e 3 17
e 3 16
e 4 60
e 4 52
e 4 43
e 4 37
e 4 32
e 4 31
e 4 27
e 4 25
e 4 23
e 4 19
e 4 18
e 4 11
e 4 5
e 5 58
e 5 53
e 5 51
e 5 17
e 5 15
e 5 10
e 6 58
e 6 57
e 6 54
e 6 52
e 6 48
e 6 46
e 6 35
e 6 33
e 6 31
e 6 22
e 6 18
e 6 17
e 7 54
e 7 52
e 7 49
e 7 44
e 7 40
e 7 19
e 7 15
e 7 11
e 7 10
e 8 59
e 8 58
e 8 55
e 8 47
e 8 28
e 8 24
e 8 19
e 8 14
e 9 56
e 9 55
e 9 54
e 9 52
e 9 51
e 9 47
e 9 42
e 9 39
e 9 38
e 9 33
e 9 30
e 9 26
e 9 24
e 9 14
e 10 58
e 10 49
e 10 43
e 10 38
e 10 32
e 10 25
e 10 21
e 10 20
e 10 11
e 11 55
e 11 54
e 11 52
e 11 50
e 11 33
e 12 56
e 12 55
e 12 54
e 12 52
e 12 50
e 12 42
e 12 40
e 12 39
e 12 22
e 12 20
e 12 14
e 12 13
e 13 56
e 13 54
e 13 49
e 13 44
e 13 32
e 13 25
e 13 19
e 13 16
e 14 57
e 14 56
e 14 54
e 14 53
e 14 51
e 14 49
e 14 36
e 14 30
e 14 28
e 14 21
e 14 17
e 14 16
e 15 58
e 15 43
e 15 42
e 15 30
e 15 28
e 15 24
e 15 22
e 15 21
e 15 20
e 15 19
e 16 55
e 16 50
e 16 49
e 16 42
e 16 40
e 16 37
e 16 35
e 16 31
e 16 24
e 17 53
e 17 46
e 17 35
e 17 30
e 18 58
e 18 55
e 18 52
e 18 48
e 18 42
e 18 38
e 18 36
e 18 33
e 18 29
e 18 25
e 18 20
e 19 58
e 19 56
e 19 52
e 19 50
e 19 25
e 19 24
e 19 21
e 20 55
e 20 50
e 20 48
e 20 41
e 20 33
e 20 25
e 21 60
e 21 48
e 21 46
e 21 35
e 21 27
e 21 24
e 22 52
e 22 49
e 22 38
e 22 31
e 22 30
e 22 26
e 22 23
e 23 60
e 23 56
e 23 53
e 23 52
e 23 45
e 23 41
e 23 33
e 23 29
e 24 60
e 24 58
e 24 45
e 24 42
e 24 32
e 25 59
e 25 50
e 25 48
e 25 42
e 25 33
e 25 32
e 25 31
e 26 50
e 26 49
e 26 44
e 26 38
e 26 36
e 26 30
e 26 28
e 27 60
e 27 59
e 27 54
e 27 45
e 27 35
e 28 53
e 28 46
e 28 45
e 28 43
e 28 33
e 29 54
e 29 53
e 29 49
e 29 43
e 30 56
e 30 55
e 30 35
e 31 55
e 31 46
e 31 45
e 31 44
e 31 40
e 31 36
e 32 60
e 32 55
e 32 54
e 32 53
e 32 47
e 32 44
e 32 40
e 32 36
e 33 55
e 33 53
e 33 49
e 33 45
e 33 41
e 33 40
e 33 36
e 34 54
e 34 44
e 34 39
e 34 37
e 35 59
e 35 53
e 35 50
e 35 44
e 35 41
e 35 40
e 35 37
e 36 59
e 36 52
e 36 44
e 36 40
e 36 37
e 37 51
e 37 49
e 37 39
e 38 49
e 38 44
e 38 42
e 39 43
e 40 58
e 40 57
e 40 55
e 40 49
e 40 45
e 40 43
e 40 41
e 42 58
e 42 54
e 42 53
e 42 47
e 42 46
e 42 45
e 42 43
e 43 53
e 44 57
e 44 55
e 44 54
e 45 59
e 45 57
e 45 55
e 45 46
e 46 57
e 46 56
e 47 58
e 47 57
e 47 55
e 47 52
e 48 57
e 48 53
e 48 50
e 50 58
e 51 52
e 52 56
e 55 57
e 56 60
